<?xml version = "1.0" encoding="UTF-8" standalone="yes"?>
<CPLEXSolution version="1.2">
 <header
   problemName="IloCplex"
   solutionName="incumbent"
   solutionIndex="-1"
   objectiveValue="129.1835994720459"
   solutionTypeValue="3"
   solutionTypeString="primal"
   solutionStatusValue="101"
   solutionStatusString="integer optimal solution"
   solutionMethodString="mip"
   primalFeasible="1"
   dualFeasible="1"
   MIPNodes="0"
   MIPIterations="3"
   writeLevel="1"/>
 <quality
   epInt="1.0000000000000001e-05"
   epRHS="9.9999999999999995e-07"
   maxIntInfeas="1.1102230246251565e-16"
   maxPrimalInfeas="5.3290705182007514e-15"
   maxX="71.090499877929688"
   maxSlack="100000"/>
 <linearConstraints>
  <constraint index="0" slack="0"/>
  <constraint index="1" slack="0"/>
  <constraint index="2" slack="0"/>
  <constraint index="3" slack="0"/>
  <constraint index="4" slack="0"/>
  <constraint index="5" slack="1"/>
  <constraint index="6" slack="1"/>
  <constraint index="7" slack="1"/>
  <constraint index="8" slack="0"/>
  <constraint index="9" slack="1"/>
  <constraint index="10" slack="1"/>
  <constraint index="11" slack="0"/>
  <constraint index="12" slack="1"/>
  <constraint index="13" slack="1.1102230246251565e-16"/>
  <constraint index="14" slack="1"/>
  <constraint index="15" slack="0"/>
  <constraint index="16" slack="0"/>
  <constraint index="17" slack="0"/>
  <constraint index="18" slack="0"/>
  <constraint index="19" slack="100000"/>
  <constraint index="20" slack="97458"/>
  <constraint index="21" slack="100000"/>
  <constraint index="22" slack="95901"/>
  <constraint index="23" slack="100000"/>
  <constraint index="24" slack="50"/>
  <constraint index="25" slack="49"/>
  <constraint index="26" slack="50"/>
  <constraint index="27" slack="45"/>
  <constraint index="28" slack="50"/>
  <constraint index="29" slack="0"/>
  <constraint index="30" slack="-1"/>
  <constraint index="31" slack="0"/>
  <constraint index="32" slack="1.1102230246251565e-16"/>
  <constraint index="33" slack="0"/>
  <constraint index="34" slack="0"/>
  <constraint index="35" slack="0"/>
  <constraint index="36" slack="0"/>
  <constraint index="37" slack="0"/>
  <constraint index="38" slack="0"/>
  <constraint index="39" slack="0"/>
  <constraint index="40" slack="0"/>
  <constraint index="41" slack="0"/>
  <constraint index="42" slack="-5.3290705182007514e-15"/>
  <constraint index="43" slack="0"/>
 </linearConstraints>
 <variables>
  <variable index="0" value="0"/>
  <variable index="1" value="0"/>
  <variable index="2" value="0"/>
  <variable index="3" value="58.093099594116211"/>
  <variable index="4" value="38.093099594116211"/>
  <variable index="5" value="58.093099594116211"/>
  <variable index="6" value="0"/>
  <variable index="7" value="0"/>
  <variable index="8" value="0"/>
  <variable index="9" value="71.090499877929688"/>
  <variable index="10" value="51.090499877929688"/>
  <variable index="11" value="71.090499877929688"/>
  <variable index="12" value="0"/>
  <variable index="13" value="0"/>
  <variable index="14" value="0"/>
  <variable index="15" value="0"/>
  <variable index="16" value="0"/>
  <variable index="17" value="0"/>
  <variable index="18" value="1"/>
  <variable index="19" value="0"/>
  <variable index="20" value="0"/>
  <variable index="21" value="1"/>
  <variable index="22" value="0"/>
  <variable index="23" value="0.99999999999999989"/>
  <variable index="24" value="0"/>
  <variable index="25" value="0"/>
  <variable index="26" value="1"/>
  <variable index="27" value="0"/>
  <variable index="28" value="0.99999999999999989"/>
  <variable index="29" value="0"/>
 </variables>
</CPLEXSolution>
